
Gurobi 6.5.2 (linux64) logging started Thu Jan 25 20:43:02 2018

Changed value of parameter LogFile to data/mip_solutions/furman_sahinidis/reduced_transportation/4sp1_gurobi.log
   Prev: gurobi.log  Default: 
Changed value of parameter Threads to 1
   Prev: 0  Min: 0  Max: 1024  Default: 0
Optimize a model with 41 rows, 146 columns and 423 nonzeros
Coefficient statistics:
  Matrix range    [1e+00, 3e+03]
  Objective range [1e+00, 1e+00]
  Bounds range    [1e+00, 1e+00]
  RHS range       [1e+00, 3e+03]
Found heuristic solution: objective 7
Presolve removed 29 rows and 128 columns
Presolve time: 0.00s
Presolved: 12 rows, 18 columns, 42 nonzeros
Variable types: 15 continuous, 3 integer (3 binary)

Root relaxation: objective 5.000000e+00, 4 iterations, 0.00 seconds

    Nodes    |    Current Node    |     Objective Bounds      |     Work
 Expl Unexpl |  Obj  Depth IntInf | Incumbent    BestBd   Gap | It/Node Time

*    0     0               0       5.0000000    5.00000  0.00%     -    0s

Explored 0 nodes (6 simplex iterations) in 0.00 seconds
Thread count was 1 (of 8 available processors)

Optimal solution found (tolerance 4.00e-02)
Best objective 5.000000000000e+00, best bound 5.000000000000e+00, gap 0.0%
